problems/csplib-prob056/sonet-models/noch/O2/lingeling/model_2_1-s3ring11-solution000001.eprime-solution
language ESSENCE' 1.0

letting network_ExplicitWithFlagsR6_Flags be [1, 1, 1, 1, 1, 1, 1; int(1..7)]
letting network_ExplicitWithFlagsR6_Values_ExplicitVarSizeWithDummy be
        [[1, 3, 7, 13, 14; int(1..5)], [1, 14, 14, 14, 14; int(1..5)], [2, 6, 10, 12, 13; int(1..5)],
         [3, 5, 6, 8, 9; int(1..5)], [4, 5, 10, 11, 12; int(1..5)], [7, 9, 10, 14, 14; int(1..5)],
         [14, 14, 14, 14, 14; int(1..5)]; int(1..7)]
